n = 15;
colSum=[6,0,3,10,7,3,5,4,10,7,7,6,9,1,0];
rowSum=[5,3,4,8,4,9,5,6,6,5,6,5,5,4,3];
groups=[|1,1,1,1,1,1,1,1,1,1,1,2,2,2,2|1,3,4,4,4,4,5,5,5,5,1,1,5,5,2|1,3,4,4,4,4,4,5,5,5,5,5,5,2,2|3,3,4,4,6,6,4,4,4,2,2,2,2,2,7|3,3,3,8,6,6,6,6,6,6,6,7,7,7,7|8,8,3,8,6,6,9,6,6,6,7,7,7,10,10|8,8,3,8,9,9,9,9,9,9,9,9,7,10,10|11,8,8,8,8,9,9,9,9,12,9,12,7,10,10|11,11,11,11,8,8,8,8,8,12,12,12,10,10,10|13,13,13,11,11,11,11,14,14,14,12,12,12,12,12|13,13,13,15,15,15,11,11,11,11,12,16,12,12,12|13,13,13,13,15,15,12,12,12,12,12,16,16,16,12|13,17,17,13,17,17,12,16,16,16,12,12,16,12,12|13,17,17,17,17,17,17,17,17,16,16,16,16,16,16|13,13,17,17,17,17,17,17,17,17,17,18,18,16,16|];
rowN = 18;
colN = 18;
pair=[|0,1,1,1,1,0,0,0,0,0,0,0,0,0,0,0,0,0|1,0,0,0,1,1,1,0,0,0,0,0,0,0,0,0,0,0|0,0,0,1,0,0,0,1,0,0,0,0,0,0,0,0,0,0|0,1,1,0,1,1,0,1,0,0,0,0,0,0,0,0,0,0|1,1,0,1,0,0,0,0,0,0,0,0,0,0,0,0,0,0|0,0,0,1,0,0,1,0,1,0,0,0,0,0,0,0,0,0|0,0,0,0,0,0,0,0,1,1,0,0,0,0,0,0,0,0|0,0,1,0,0,1,0,0,1,0,1,1,0,1,0,0,0,0|0,0,0,0,0,1,1,1,0,0,0,1,0,0,0,0,0,0|0,0,0,0,0,0,0,0,0,0,0,1,0,0,0,0,0,0|0,0,0,0,0,0,0,1,0,0,0,1,1,1,1,0,0,0|0,0,0,0,0,0,1,0,1,1,0,0,0,1,0,1,1,0|0,0,0,0,0,0,0,0,0,0,1,0,0,0,1,0,1,0|0,0,0,0,0,0,0,0,0,0,1,1,0,0,0,0,0,0|0,0,0,0,0,0,0,0,0,0,1,1,1,0,0,0,1,0|0,0,0,0,0,0,0,0,0,0,0,1,0,0,0,0,1,1|0,0,0,0,0,0,0,0,0,0,0,1,1,0,0,1,0,1|0,0,0,0,0,0,0,0,0,0,0,0,0,0,0,1,0,0|];
